Route #1:
Route #2: 15 11 8 9 10
Route #3: 27 29 14 30 21
Route #4: 23 4 28 6
Route #5: 24
Route #6: 20
Route #7: 2 31 13 3
Route #8: 22
Route #9: 12 26
Route #10: 17 1 16
Route #11: 5
Route #12: 19 18 7
Route #13: 25

Cost: 2040.3752235447823
